c FILE /home/rafael/Documents/HappySet/MIHS/inputs/happygen/output/graph_d_regular_k3_p0.5_v50_20241127_082605.txt
c SOURCE This is a d-regular graph formed for the happy graph colouring problem.
c DESCRIPTION It was generated using the problem generator of Rhyd Lewis
c
c GRAPH STATS
c Seed                             = -2128499436
c Number of Nodes                  = 50
c Number of colours k              = 3
c Number of pre-assignments        = 25
c Degree of all vertices           = 6
c Density                          = 0.122449
c 
c The degrees of nodes 1 to 50, respectively, are as follows 
c [6, 6, 6, 6, 6, 6, 6, 6, 6, 6, 6, 6, 6, 6, 6, 6, 6, 6, 6, 6, 6, 6, 6, 6, 6, 6, 
c  6, 6, 6, 6, 6, 6, 6, 6, 6, 6, 6, 6, 6, 6, 6, 6, 6, 6, 6, 6, 6, 6, 6, 6] 
c  
p edge 50 150 3
e 1 2
e 1 5
e 1 12
e 1 23
e 1 25
e 1 32
e 2 4
e 2 13
e 2 16
e 2 26
e 2 40
e 3 22
e 3 24
e 3 34
e 3 39
e 3 42
e 3 44
e 4 21
e 4 26
e 4 31
e 4 32
e 4 41
e 5 11
e 5 14
e 5 32
e 5 36
e 5 48
e 6 7
e 6 9
e 6 19
e 6 23
e 6 41
e 6 47
e 7 18
e 7 20
e 7 23
e 7 38
e 7 49
e 8 22
e 8 25
e 8 28
e 8 29
e 8 36
e 8 50
e 9 12
e 9 20
e 9 21
e 9 32
e 9 34
e 10 14
e 10 29
e 10 30
e 10 32
e 10 39
e 10 46
e 11 12
e 11 15
e 11 29
e 11 30
e 11 31
e 12 13
e 12 17
e 12 27
e 13 15
e 13 24
e 13 29
e 13 31
e 14 19
e 14 25
e 14 26
e 14 45
e 15 20
e 15 43
e 15 44
e 15 46
e 16 33
e 16 34
e 16 35
e 16 39
e 16 47
e 17 23
e 17 29
e 17 32
e 17 33
e 17 37
e 18 36
e 18 37
e 18 44
e 18 49
e 18 50
e 19 27
e 19 35
e 19 45
e 19 46
e 20 24
e 20 31
e 20 42
e 21 39
e 21 45
e 21 47
e 21 48
e 22 24
e 22 35
e 22 43
e 22 48
e 23 37
e 23 39
e 24 30
e 24 40
e 25 35
e 25 38
e 25 42
e 26 28
e 26 38
e 26 49
e 27 38
e 27 42
e 27 43
e 27 49
e 28 36
e 28 45
e 28 48
e 28 49
e 29 39
e 30 35
e 30 38
e 30 50
e 31 40
e 31 47
e 33 37
e 33 44
e 33 46
e 33 47
e 34 38
e 34 41
e 34 49
e 35 41
e 36 40
e 36 46
e 37 43
e 37 44
e 40 41
e 40 42
e 41 50
e 42 43
e 43 50
e 44 46
e 45 48
e 45 50
e 47 48
n 5 2
n 6 2
n 7 2
n 10 2
n 11 2
n 13 3
n 16 2
n 17 2
n 18 2
n 19 2
n 21 3
n 22 3
n 24 3
n 25 1
n 26 2
n 32 2
n 33 2
n 34 2
n 36 2
n 37 2
n 41 2
n 42 1
n 46 2
n 49 2
n 50 2
